1 2
2 2
3 2
4 1
5 2
6 2
7 2
8 2
9 2
10 1
11 2
12 1
13 1
14 1
15 1
16 1
17 2
18 1
19 1
20 2
21 2
22 1
23 1
24 1
25 1
26 2
27 1
28 2
29 1
30 1
31 1
32 1
33 2
34 2
35 1
36 1
37 2
38 1
39 1
40 1
41 1
42 2
43 2
44 2
45 1
46 1
47 1
48 1
49 2
50 1
51 1
52 1
53 2
54 1
55 2
56 1
57 2
58 2
59 1
60 2
61 2
62 1
63 2
64 2
65 1
66 1
67 1
68 2
69 1
70 1
71 1
72 2
73 1
74 2
75 1
76 1
77 2
78 1
79 2
80 2
81 2
82 1
83 2
84 2
85 2
86 1
87 1
88 2
89 1
90 1
91 1
92 2
93 1
94 1
95 2
96 2
97 2
98 1
99 2
100 2
101 2
102 2
103 2
104 2
105 2
106 1
107 1
108 1
109 2
110 1
111 1
112 1
113 2
114 2
115 2
116 2
117 1
118 1
119 2
120 2
121 2
122 2
123 1
124 1
125 1
126 1
127 2
128 1
129 2
130 1
131 1
132 2
133 1
134 1
135 2
136 1
137 1
138 1
139 1
140 1
141 1
142 2
143 1
144 2
145 1
146 1
147 2
148 1
149 1
150 1
151 2
152 2
153 1
154 1
155 2
156 1
157 2
158 1
159 2
160 2
161 2
162 2
163 2
164 2
165 2
166 2
167 1
168 1
169 2
170 2
171 1
172 2
173 2
174 2
175 1
176 2
177 2
178 1
179 2
180 2
181 2
182 2
183 1
184 2
185 1
186 1
187 1
188 1
189 1
190 2
191 2
192 2
193 1
194 2
195 2
196 1
197 1
198 2
199 2
200 2
201 1
202 1
203 2
204 1
205 2
206 2
207 2
208 1
209 2
210 1
211 1
212 1
213 1
214 1
215 2
216 2
217 1
218 1
219 2
220 2
221 2
222 1
223 1
224 2
225 2
226 1
227 1
228 2
229 2
230 1
231 2
232 2
233 2
234 2
235 2
236 2
237 1
238 2
239 2
240 2
241 1
242 2
243 2
244 1
245 1
246 1
247 2
248 2
249 1
250 1
251 1
252 1
253 2
254 2
255 2
256 2
257 1
258 2
259 2
260 2
261 2
262 1
263 1
264 2
265 2
266 2
267 2
268 1
269 1
270 2
271 1
272 1
273 1
274 1
275 1
276 2
277 1
278 1
279 2
280 1
281 1
282 2
283 2
284 1
285 2
286 2
287 2
288 2
289 1
290 1
291 1
292 2
293 2
294 2
295 2
296 1
297 1
298 2
299 1
300 2
301 2
302 1
303 1
304 2
305 1
306 2
307 1
308 2
309 2
310 2
311 1
312 1
313 2
314 1
315 2
316 2
317 2
318 1
319 2
320 1
321 2
322 2
323 1
324 1
325 1
326 2
327 2
328 1
329 1
330 2
331 1
332 1
333 2
334 1
335 1
336 2
337 2
338 2
339 1
340 1
341 2
342 1
343 2
344 2
345 2
346 1
347 2
348 2
349 1
350 2
351 1
352 1
353 1
354 1
355 1
356 2
357 2
358 2
359 1
360 2
361 1
362 2
363 2
364 1
365 1
366 1
367 2
368 1
369 2
370 2
371 1
372 1
373 2
374 1
375 2
376 1
377 1
378 2
379 2
380 2
381 2
382 2
383 1
384 1
385 1
386 2
387 2
388 1
389 1
390 1
391 2
392 2
393 1
394 2
395 1
396 2
397 1
398 1
399 2
400 1
401 1
402 2
403 1
404 2
405 2
406 1
407 1
408 1
409 1
410 2
411 2
412 1
413 2
414 2
415 1
416 1
417 1
418 2
419 1
420 2
421 1
422 2
423 2
424 2
425 1
426 2
427 2
428 1
429 1
430 1
431 2
432 1
433 1
434 2
435 1
436 2
437 2
438 2
439 1
440 1
441 2
442 2
443 1
444 2
445 1
446 2
447 1
448 2
449 1
450 2
451 2
452 1
453 1
454 1
455 1
456 1
457 2
458 1
459 1
460 2
461 1
462 2
463 1
464 2
465 2
466 1
467 2
468 1
469 1
470 2
471 2
472 1
473 2
474 2
475 1
476 1
477 2
478 2
479 1
480 2
481 1
482 1
483 2
484 1
485 2
486 1
487 1
488 1
489 1
490 1
491 2
492 1
493 2
494 2
495 1
496 2
497 1
498 1
499 2
500 1
501 2
502 1
503 1
504 2
505 2
506 2
507 1
508 1
509 1
510 2
511 2
512 2
513 1
514 1
515 1
516 2
517 1
518 2
519 1
520 1
521 1
522 1
523 2
524 2
525 2
526 2
527 2
528 1
529 1
530 2
531 2
532 1
533 2
534 1
535 2
536 2
537 2
538 2
539 1
540 1
541 2
542 2
543 1
544 2
545 2
546 1
547 2
548 2
549 2
550 2
551 1
552 2
553 2
554 2
555 1
556 1
557 1
558 1
559 1
560 2
561 1
562 2
563 1
564 1
565 1
566 1
567 2
568 2
569 1
570 1
571 1
572 2
573 1
574 2
575 2
576 1
577 1
578 1
579 1
580 2
581 2
582 2
583 1
584 2
585 1
586 2
587 2
588 1
589 1
590 2
591 2
592 1
593 2
594 2
595 1
596 2
597 1
598 2
599 1
600 1
601 1
602 2
603 1
604 2
605 2
606 1
607 2
608 2
609 2
610 1
611 2
612 1
613 1
614 1
615 2
616 2
617 1
618 2
619 1
620 2
621 1
622 1
623 1
624 2
625 2
626 2
627 2
628 1
629 2
630 1
631 2
632 2
633 2
634 2
635 2
636 1
637 1
638 2
639 1
640 1
641 2
642 1
643 1
644 2
645 1
646 2
647 1
648 2
649 2
650 1
651 1
652 1
653 2
654 2
655 1
656 1
657 1
658 1
659 2
660 2
661 2
662 1
663 2
664 1
665 2
666 1
667 2
668 1
669 1
670 1
671 2
672 1
673 2
674 1
675 1
676 2
677 2
678 1
679 2
680 1
681 2
682 2
683 1
684 2
685 2
686 2
687 2
688 2
689 2
690 1
691 2
692 2
693 2
694 2
695 2
696 2
697 2
698 2
699 1
700 1
701 1
702 2
703 1
704 1
705 2
706 1
707 1
708 2
709 2
710 2
711 2
712 1
713 2
714 2
715 1
716 1
717 2
718 1
719 1
720 2
721 2
722 1
723 2
724 2
725 1
726 1
727 2
728 2
729 2
730 2
731 2
732 2
733 2
734 1
735 1
736 1
737 2
738 2
739 1
740 1
741 1
742 1
743 2
744 1
745 2
746 2
747 1
748 2
749 2
750 2
751 2
752 1
753 2
754 2
755 2
756 2
757 1
758 1
759 1
760 1
761 2
762 2
763 2
764 1
765 2
766 2
767 2
768 1
769 1
770 2
771 2
772 2
773 1
774 1
775 2
776 2
777 2
778 2
779 1
780 2
781 1
782 2
783 1
784 2
785 1
786 1
787 1
788 1
789 2
790 2
791 1
792 2
793 1
794 2
795 2
796 1
797 2
798 2
799 1
800 2
801 1
802 2
803 2
804 1
805 1
806 2
807 2
808 2
809 2
810 2
811 2
812 1
813 2
814 2
815 2
816 1
817 1
818 1
819 1
820 2
821 1
822 2
823 2
824 2
825 2
826 1
827 2
828 2
829 2
830 1
831 2
832 2
833 2
834 1
835 2
836 2
837 1
838 2
839 2
840 1
841 1
842 2
843 2
844 2
845 1
846 2
847 2
848 2
849 1
850 1
851 2
852 2
853 1
854 1
855 1
856 1
857 2
858 1
859 1
860 2
861 2
862 2
863 1
864 1
865 1
866 2
867 2
868 1
869 1
870 1
871 1
872 2
873 1
874 1
875 2
876 1
877 2
878 2
879 1
880 1
881 1
882 2
883 1
884 1
885 2
886 2
887 1
888 2
889 2
890 1
891 2
892 1
893 1
894 1
895 1
896 1
897 1
898 1
899 2
900 2
901 2
902 1
903 2
904 2
905 2
906 2
907 1
908 1
909 1
910 2
911 2
912 2
913 1
914 2
915 2
916 2
917 2
918 2
919 1
920 2
921 2
922 1
923 2
924 2
925 1
926 2
927 1
928 2
929 2
930 2
931 2
932 1
933 1
934 2
935 2
936 2
937 2
938 1
939 2
940 1
941 2
942 1
943 2
944 2
945 2
946 1
947 1
948 2
949 2
950 2
951 2
952 1
953 2
954 1
955 2
956 2
957 2
958 1
959 2
960 1
961 1
962 2
963 1
964 2
965 2
966 2
967 1
968 2
969 2
970 2
971 1
972 1
973 1
974 1
975 2
976 2
977 2
978 1
979 1
980 1
981 1
982 2
983 2
984 2
985 1
986 1
987 2
988 1
989 2
990 1
991 2
992 2
993 1
994 2
995 1
996 2
997 2
998 1
999 1
1000 1
1001 1
1002 2
1003 1
1004 2
1005 2
1006 1
1007 1
1008 2
1009 2
1010 1
1011 2
1012 1
1013 1
1014 2
1015 1
1016 1
1017 1
1018 2
1019 2
1020 2
1021 1
1022 2
1023 2
1024 2
1025 1
1026 1
1027 1
1028 2
1029 1
1030 1
1031 2
1032 1
1033 1
1034 1
1035 2
1036 1
1037 1
1038 2
1039 2
1040 2
1041 1
1042 2
1043 2
1044 1
1045 1
1046 1
1047 2
1048 2
1049 1
1050 1
1051 2
1052 2
1053 1
1054 1
1055 1
1056 1
1057 2
1058 1
1059 2
1060 1
1061 1
1062 2
1063 2
1064 1
1065 2
1066 1
1067 2
1068 2
1069 2
1070 1
1071 2
1072 1
1073 1
1074 1
1075 1
1076 1
1077 1
1078 1
1079 2
1080 1
1081 2
1082 2
1083 1
1084 1
1085 2
1086 2
1087 1
1088 2
1089 2
1090 1
1091 1
1092 2
1093 1
1094 1
1095 1
1096 2
1097 1
1098 2
1099 2
1100 2
1101 2
1102 2
1103 2
1104 2
1105 1
1106 1
1107 2
1108 2
1109 2
1110 2
1111 2
1112 2
1113 1
1114 1
1115 1
1116 2
1117 2
1118 2
1119 1
1120 1
1121 2
1122 2
1123 2
1124 1
1125 1
1126 2
1127 2
1128 2
1129 1
1130 1
1131 1
1132 2
1133 2
1134 2
1135 2
1136 1
1137 2
1138 2
1139 1
1140 2
1141 1
1142 2
1143 1
1144 1
1145 2
1146 1
1147 2
1148 2
1149 1
1150 1
1151 1
1152 1
1153 1
1154 2
1155 1
1156 1
1157 2
1158 1
1159 1
1160 2
1161 1
1162 1
1163 2
1164 2
1165 2
1166 2
1167 2
1168 1
1169 1
1170 1
1171 1
1172 2
1173 2
1174 1
1175 1
1176 1
1177 2
1178 2
1179 1
1180 1
1181 1
1182 2
1183 1
1184 2
1185 1
1186 2
1187 1
1188 1
1189 2
1190 2
1191 1
1192 1
1193 1
1194 2
1195 1
1196 1
1197 2
1198 1
1199 2
1200 1
1201 2
1202 2
1203 2
1204 1
1205 1
1206 1
1207 2
1208 2
1209 2
1210 1
1211 1
1212 2
1213 1
1214 2
1215 1
1216 2
1217 1
1218 1
1219 2
1220 2
1221 1
1222 1
1223 2
1224 2
1225 2
1226 2
1227 2
1228 1
1229 2
1230 2
1231 2
1232 1
1233 1
1234 2
1235 1
1236 1
1237 2
1238 1
1239 1
1240 1
1241 1
1242 1
1243 2
1244 2
1245 1
1246 1
1247 1
1248 2
1249 2
1250 1
1251 1
1252 2
1253 2
1254 2
1255 2
1256 1
1257 2
1258 1
1259 1
1260 1
1261 1
1262 2
1263 1
1264 1
1265 2
1266 1
1267 1
1268 1
1269 1
1270 2
1271 1
1272 2
1273 2
1274 1
1275 1
1276 1
1277 1
1278 1
1279 1
1280 2
1281 1
1282 1
1283 2
1284 1
1285 2
1286 2
1287 1
1288 1
1289 2
1290 2
1291 1
1292 1
1293 1
1294 1
1295 2
1296 1
1297 2
1298 1
1299 1
1300 1
1301 2
1302 2
1303 2
1304 1
1305 2
1306 2
1307 2
1308 1
1309 2
1310 1
1311 2
1312 2
1313 2
1314 1
1315 1
1316 2
1317 1
1318 1
1319 1
1320 2
1321 1
1322 2
1323 2
1324 2
1325 1
1326 1
1327 1
1328 2
1329 1
1330 1
1331 2
1332 2
1333 2
1334 2
1335 2
1336 2
1337 2
1338 2
1339 2
1340 2
1341 2
1342 1
1343 2
1344 1
1345 1
1346 2
1347 1
1348 2
1349 2
1350 1
1351 1
1352 1
1353 1
1354 2
1355 2
1356 1
1357 1
1358 1
1359 1
1360 2
1361 1
1362 2
1363 1
1364 1
1365 2
1366 1
1367 1
1368 1
1369 2
1370 1
1371 1
1372 1
1373 1
1374 2
1375 1
1376 2
1377 1
1378 1
1379 1
1380 1
1381 1
1382 1
1383 2
1384 2
1385 2
1386 2
1387 1
1388 2
1389 1
1390 2
1391 2
1392 1
1393 2
1394 2
1395 2
1396 2
1397 2
1398 2
1399 1
1400 1
1401 2
1402 2
1403 1
1404 1
1405 1
1406 1
1407 1
1408 2
1409 2
1410 2
1411 1
1412 2
1413 1
1414 2
1415 1
1416 2
1417 1
1418 1
1419 2
1420 1
1421 2
1422 1
1423 2
1424 1
1425 2
1426 2
1427 1
1428 2
1429 1
1430 1
1431 1
1432 2
1433 1
1434 2
1435 1
1436 1
1437 1
1438 2
1439 2
1440 2
1441 2
1442 1
1443 1
1444 2
1445 1
1446 2
1447 2
1448 2
1449 1
1450 2
1451 1
1452 1
1453 2
1454 2
1455 2
1456 2
1457 1
1458 1
1459 2
1460 1
1461 2
1462 2
1463 2
1464 2
1465 1
1466 1
1467 1
1468 2
1469 1
1470 1
1471 1
1472 1
1473 1
1474 1
1475 2
1476 1
1477 1
1478 1
1479 1
1480 2
1481 2
1482 2
1483 2
1484 2
1485 1
1486 1
1487 2
1488 2
1489 2
1490 2
1491 1
1492 1
1493 1
1494 1
1495 1
1496 2
1497 1
1498 1
1499 1
1500 1
1501 1
1502 2
1503 1
1504 2
1505 1
1506 1
1507 2
1508 2
1509 2
1510 2
1511 2
1512 2
1513 2
1514 1
1515 1
1516 1
1517 1
1518 2
1519 2
1520 1
1521 2
1522 1
1523 2
1524 1
1525 2
1526 2
1527 1
1528 1
1529 2
1530 2
1531 2
1532 1
1533 2
1534 2
1535 1
1536 1
1537 2
1538 1
1539 1
1540 2
1541 2
1542 2
1543 1
1544 2
1545 2
1546 1
1547 2
1548 1
1549 1
1550 2
1551 1
1552 2
1553 1
1554 1
1555 2
1556 1
1557 2
1558 2
1559 2
1560 1
1561 2
1562 2
1563 1
1564 2
1565 1
1566 1
1567 2
1568 1
1569 1
1570 1
1571 2
1572 2
1573 2
1574 2
1575 1
1576 2
1577 1
1578 2
1579 1
1580 2
1581 1
1582 2
1583 1
1584 1
1585 2
1586 1
1587 2
1588 1
1589 1
1590 2
1591 1
1592 1
1593 2
1594 1
1595 2
1596 2
1597 2
1598 1
1599 2
1600 1
1601 2
1602 1
1603 1
1604 1
1605 2
1606 1
1607 2
1608 2
1609 1
1610 1
1611 2
1612 1
1613 1
1614 2
1615 2
1616 1
1617 2
1618 2
1619 1
1620 2
1621 1
1622 2
1623 2
1624 2
1625 1
1626 2
1627 1
1628 1
1629 1
1630 1
1631 1
1632 1
1633 2
1634 2
1635 2
1636 2
1637 2
1638 2
1639 1
1640 2
1641 1
1642 1
1643 2
1644 2
1645 1
1646 1
1647 1
1648 2
1649 2
1650 2
1651 2
1652 1
1653 2
1654 2
1655 1
1656 2
1657 1
1658 1
1659 1
1660 1
1661 1
1662 1
1663 2
1664 2
1665 1
1666 1
1667 1
1668 1
1669 2
1670 2
1671 1
1672 1
1673 1
1674 2
1675 1
1676 1
1677 1
1678 2
1679 2
1680 2
1681 2
1682 2
1683 1
1684 1
1685 2
1686 1
1687 1
1688 1
1689 2
1690 1
1691 2
1692 1
1693 1
1694 1
1695 1
1696 1
1697 1
1698 2
1699 1
1700 2
1701 1
1702 1
1703 2
1704 2
1705 2
1706 2
1707 2
1708 2
1709 2
1710 1
1711 1
1712 1
1713 1
1714 1
1715 1
1716 2
1717 1
1718 2
1719 2
1720 2
1721 2
1722 2
1723 1
1724 1
1725 1
1726 1
1727 1
1728 1
1729 2
1730 1
1731 2
1732 1
1733 1
1734 1
1735 2
1736 2
1737 2
1738 2
1739 2
1740 2
1741 1
1742 1
1743 1
1744 1
1745 1
1746 2
1747 2
1748 1
1749 2
1750 2
1751 1
1752 2
1753 1
1754 2
1755 2
1756 1
1757 1
1758 1
1759 2
1760 2
1761 1
1762 1
1763 2
1764 2
1765 2
1766 2
1767 2
1768 1
1769 2
1770 1
1771 2
1772 2
1773 2
1774 1
1775 2
1776 1
1777 2
1778 1
1779 1
1780 2
1781 1
1782 1
1783 2
1784 1
1785 1
1786 1
1787 2
1788 1
1789 1
1790 2
1791 1
1792 1
1793 2
1794 2
1795 1
1796 1
1797 2
1798 1
1799 1
1800 2
1801 2
1802 1
1803 1
1804 1
1805 2
1806 2
1807 2
1808 1
1809 2
1810 1
1811 2
1812 2
1813 2
1814 1
1815 2
1816 2
1817 2
1818 1
1819 1
1820 2
1821 1
1822 1
1823 1
1824 1
1825 1
1826 2
1827 2
1828 2
1829 1
1830 1
1831 1
1832 1
1833 2
1834 1
1835 1
1836 1
1837 1
1838 1
1839 1
1840 2
1841 2
1842 1
1843 2
1844 2
1845 1
1846 1
1847 2
1848 2
1849 1
1850 1
1851 1
1852 2
1853 2
1854 1
1855 2
1856 1
1857 2
1858 1
1859 1
1860 2
1861 2
1862 2
1863 2
1864 2
1865 1
1866 1
1867 1
1868 1
1869 2
1870 1
1871 2
1872 1
1873 2
1874 1
1875 1
1876 2
1877 1
1878 1
1879 2
1880 1
1881 1
1882 2
1883 2
1884 1
1885 2
1886 2
1887 2
1888 2
1889 1
1890 2
1891 1
1892 2
1893 2
1894 2
1895 2
1896 1
1897 1
1898 1
1899 1
1900 1
1901 2
1902 1
1903 1
1904 1
1905 2
1906 2
1907 2
1908 2
1909 2
1910 1
1911 1
1912 2
1913 1
1914 1
1915 1
1916 1
1917 1
1918 1
1919 1
1920 1
1921 1
1922 1
1923 1
1924 1
1925 1
1926 1
1927 1
1928 2
1929 1
1930 2
1931 1
1932 2
1933 2
1934 2
1935 1
1936 1
1937 2
1938 2
1939 2
1940 1
1941 2
1942 1
1943 2
1944 1
1945 2
1946 2
1947 1
1948 1
1949 1
1950 2
1951 2
1952 1
1953 2
1954 1
1955 1
1956 2
1957 1
1958 2
1959 2
1960 1
1961 2
1962 2
1963 2
1964 1
1965 1
1966 2
1967 2
1968 2
1969 2
1970 1
1971 1
1972 1
1973 1
1974 1
1975 1
1976 2
1977 2
1978 2
1979 2
1980 1
1981 1
1982 1
1983 1
1984 2
1985 2
1986 1
1987 1
1988 1
1989 2
1990 1
1991 2
1992 2
1993 1
1994 2
1995 1
1996 2
1997 1
1998 2
1999 1
2000 2
2001 1
2002 2
2003 2
2004 1
2005 1
2006 1
2007 1
2008 2
2009 1
2010 1
2011 1
2012 1
2013 1
2014 1
2015 1
2016 1
2017 2
2018 2
2019 2
2020 1
2021 2
2022 1
2023 2
2024 2
2025 2
2026 1
2027 2
2028 1
2029 2
2030 2
2031 2
2032 2
2033 2
2034 1
2035 2
2036 2
2037 2
2038 1
2039 1
2040 1
2041 2
2042 1
2043 2
2044 2
2045 1
2046 1
2047 1
2048 1
2049 1
2050 1
2051 2
2052 1
2053 2
2054 1
2055 1
2056 1
2057 2
2058 1
2059 2
2060 2
2061 1
2062 2
2063 2
2064 2
2065 2
2066 1
2067 1
2068 2
2069 2
2070 2
2071 2
2072 2
2073 2
2074 2
2075 2
2076 2
2077 1
2078 1
2079 2
2080 1
2081 2
2082 1
2083 1
2084 2
2085 2
2086 2
2087 2
2088 2
2089 1
2090 2
2091 2
2092 1
2093 2
2094 1
2095 2
2096 2
2097 1
2098 1
2099 1
2100 2
2101 1
2102 2
2103 2
2104 1
2105 1
2106 1
2107 1
2108 2
2109 2
2110 2
2111 2
2112 1
2113 1
2114 2
2115 1
2116 2
2117 2
2118 2
2119 1
2120 2
2121 2
2122 2
2123 1
2124 1
2125 1
2126 2
2127 2
2128 1
2129 2
2130 2
2131 1
2132 2
2133 2
2134 2
2135 2
2136 2
2137 1
2138 2
2139 2
2140 2
2141 1
2142 2
2143 2
2144 1
2145 2
2146 2
2147 1
2148 2
2149 2
2150 1
2151 2
2152 1
2153 1
2154 1
2155 2
2156 2
2157 2
2158 1
2159 2
2160 2
2161 2
2162 2
2163 1
2164 1
2165 1
2166 2
2167 2
2168 2
2169 1
2170 1
2171 1
2172 1
2173 2
2174 2
2175 1
2176 1
2177 2
2178 1
2179 2
2180 1
2181 2
2182 2
2183 2
2184 1
2185 1
2186 1
2187 1
2188 1
2189 2
2190 1
2191 2
2192 2
2193 2
2194 2
2195 1
2196 1
2197 1
2198 2
2199 2
2200 2
2201 1
2202 1
2203 2
2204 2
2205 2
2206 1
2207 2
2208 1
2209 1
2210 2
2211 1
2212 2
2213 1
2214 2
2215 1
2216 2
2217 1
2218 1
2219 1
2220 2
2221 2
2222 2
2223 2
2224 2
2225 2
2226 2
2227 2
2228 1
2229 2
2230 1
2231 1
2232 2
2233 2
2234 1
2235 2
2236 1
2237 2
2238 1
2239 2
2240 1
2241 2
2242 2
2243 1
2244 1
2245 2
2246 1
2247 2
2248 2
2249 2
2250 2
2251 1
2252 2
2253 2
2254 1
2255 2
2256 2
2257 1
2258 1
2259 2
2260 1
2261 2
2262 1
2263 2
2264 1
2265 1
2266 1
2267 1
2268 2
2269 2
2270 2
2271 2
2272 1
2273 2
2274 1
2275 1
2276 2
2277 2
2278 1
2279 1
2280 2
2281 2
2282 1
2283 1
2284 2
2285 2
2286 1
2287 1
2288 1
2289 2
2290 1
2291 2
2292 1
2293 1
2294 1
2295 2
2296 1
2297 2
2298 2
2299 2
2300 2
2301 2
2302 1
2303 2
2304 1
2305 1
2306 2
2307 1
2308 2
2309 2
2310 2
2311 2
2312 1
2313 2
2314 1
2315 2
2316 2
2317 1
2318 2
2319 2
2320 1
2321 2
2322 1
2323 1
2324 2
2325 2
2326 2
2327 1
2328 2
2329 2
2330 2
2331 1
2332 1
2333 2
2334 2
2335 2
2336 2
2337 2
2338 1
2339 2
2340 1
2341 2
2342 2
2343 1
2344 2
2345 1
2346 1
2347 2
2348 1
2349 2
2350 2
2351 2
2352 2
2353 2
2354 1
2355 2
2356 1
2357 2
2358 1
2359 2
2360 2
2361 2
2362 1
2363 1
2364 2
2365 1
2366 1
2367 1
2368 1
2369 2
2370 1
2371 1
2372 1
2373 1
2374 2
2375 1
2376 1
2377 1
2378 2
2379 2
2380 2
2381 1
2382 1
2383 2
2384 1
2385 2
2386 2
2387 2
2388 2
2389 1
2390 2
2391 1
2392 1
2393 2
2394 2
2395 2
2396 1
2397 1
2398 1
2399 2
2400 1
2401 1
2402 2
2403 2
2404 1
2405 1
2406 1
2407 1
2408 2
2409 2
2410 1
2411 2
2412 1
2413 1
2414 1
2415 2
2416 1
2417 2
2418 1
2419 1
2420 1
2421 1
2422 2
2423 1
2424 2
2425 2
2426 1
2427 1
2428 1
2429 1
2430 2
2431 1
2432 1
2433 2
2434 1
2435 1
2436 1
2437 1
2438 1
2439 2
2440 2
2441 2
2442 2
2443 2
2444 2
2445 1
2446 2
2447 2
2448 2
2449 1
2450 1
2451 1
2452 1
2453 2
2454 2
2455 1
2456 1
2457 2
2458 2
2459 2
2460 1
2461 1
2462 2
2463 1
2464 1
2465 2
2466 2
2467 2
2468 1
2469 2
2470 2
2471 2
2472 1
2473 1
2474 1
2475 1
2476 1
2477 2
2478 2
2479 2
2480 1
2481 1
2482 1
2483 1
2484 2
2485 2
2486 2
2487 1
2488 2
2489 2
2490 1
2491 2
2492 2
2493 2
2494 2
2495 2
2496 1
2497 1
2498 1
2499 2
2500 2
2501 1
2502 2
2503 1
2504 2
2505 1
2506 1
2507 2
2508 1
2509 1
2510 2
2511 2
2512 2
2513 1
2514 2
2515 1
2516 1
2517 1
2518 1
2519 2
2520 1
2521 2
2522 1
2523 2
2524 1
2525 1
2526 2
2527 1
2528 1
2529 2
2530 2
2531 1
2532 2
2533 1
2534 2
2535 1
2536 1
2537 1
2538 1
2539 1
2540 1
2541 1
2542 2
2543 2
2544 2
2545 2
2546 2
2547 1
2548 1
2549 1
2550 2
2551 2
2552 2
2553 2
2554 2
2555 1
2556 2
2557 2
2558 1
2559 2
2560 1
2561 1
2562 1
2563 2
2564 1
2565 1
2566 2
2567 1
2568 2
2569 1
2570 2
2571 2
2572 1
2573 2
2574 2
2575 1
2576 2
2577 1
2578 2
2579 2
2580 2
2581 1
2582 2
2583 2
2584 2
2585 2
2586 1
2587 2
2588 2
2589 2
2590 1
2591 2
2592 2
2593 2
2594 2
2595 2
2596 2
2597 2
2598 2
2599 2
2600 1
2601 2
2602 1
2603 1
2604 2
2605 2
2606 1
2607 1
2608 1
2609 1
2610 1
2611 2
2612 1
2613 2
2614 1
2615 1
2616 1
2617 2
2618 2
2619 1
2620 1
2621 1
2622 2
2623 2
2624 2
2625 1
2626 1
2627 2
2628 1
2629 1
2630 1
2631 1
2632 1
2633 2
2634 2
2635 1
2636 2
2637 1
2638 2
2639 2
2640 1
2641 2
2642 2
2643 1
2644 1
2645 1
2646 2
2647 2
2648 1
2649 1
2650 1
2651 2
2652 1
2653 2
2654 2
2655 1
2656 2
2657 2
2658 1
2659 1
2660 1
2661 1
2662 1
2663 1
2664 2
2665 2
2666 2
2667 1
2668 2
2669 2
2670 2
2671 1
2672 1
2673 1
2674 2
2675 1
2676 2
2677 1
2678 2
2679 1
2680 2
2681 2
2682 2
2683 2
2684 2
2685 1
2686 2
2687 2
2688 2
2689 1
2690 1
2691 1
2692 2
2693 1
2694 1
2695 1
2696 1
2697 2
2698 2
2699 1
2700 2
2701 1
2702 1
2703 2
2704 1
2705 1
2706 2
2707 1
2708 2
2709 1
2710 2
2711 2
2712 2
2713 2
2714 1
2715 1
2716 1
2717 1
2718 1
2719 1
2720 1
2721 2
2722 2
2723 2
2724 1
2725 1
2726 2
2727 2
2728 1
2729 1
2730 1
2731 1
2732 2
2733 2
2734 2
2735 1
2736 1
2737 1
2738 1
2739 2
2740 2
2741 1
2742 2
2743 2
2744 2
2745 2
2746 2
2747 2
2748 1
2749 2
2750 1
2751 2
2752 2
2753 1
2754 1
2755 2
2756 1
2757 1
2758 2
2759 1
2760 1
2761 2
2762 2
2763 2
2764 2
2765 1
2766 2
2767 1
2768 1
2769 1
2770 1
2771 1
2772 2
2773 2
2774 1
2775 1
2776 1
2777 2
2778 2
2779 1
2780 2
2781 1
2782 1
2783 2
2784 2
2785 1
2786 1
2787 2
2788 1
2789 2
2790 1
2791 1
2792 1
2793 2
2794 2
2795 1
2796 1
2797 1
2798 1
2799 2
2800 2
2801 2
2802 1
2803 2
2804 2
2805 1
2806 1
2807 2
2808 2
2809 2
2810 2
2811 1
2812 1
2813 1
2814 2
2815 2
2816 1
2817 2
2818 1
2819 2
2820 2
2821 2
2822 2
2823 2
2824 1
2825 2
2826 2
2827 1
2828 1
2829 2
2830 1
2831 2
2832 2
2833 2
2834 2
2835 1
2836 2
2837 2
2838 1
2839 1
2840 1
2841 1
2842 1
2843 1
2844 2
2845 1
2846 1
2847 2
2848 2
2849 1
2850 1
2851 2
2852 2
2853 2
2854 1
2855 1
2856 1
2857 1
2858 1
2859 1
2860 2
2861 2
2862 2
2863 2
2864 2
2865 1
2866 1
2867 2
2868 1
2869 2
2870 2
2871 1
2872 1
2873 2
2874 1
2875 2
2876 1
2877 2
2878 2
2879 1
2880 2
2881 2
2882 2
2883 1
2884 1
2885 2
2886 2
2887 2
2888 1
2889 1
2890 1
2891 2
2892 1
2893 2
2894 2
2895 2
2896 1
2897 2
2898 2
2899 2
2900 2
2901 1
2902 1
2903 2
2904 2
2905 1
2906 2
2907 1
2908 1
2909 1
2910 2
2911 2
2912 1
2913 1
2914 2
2915 1
2916 1
2917 2
2918 1
2919 1
2920 1
2921 2
2922 1
2923 2
2924 1
2925 2
2926 2
2927 2
2928 2
2929 1
2930 2
2931 1
2932 2
2933 1
2934 1
2935 2
2936 1
2937 1
2938 1
2939 1
2940 1
2941 2
2942 2
2943 2
2944 2
2945 1
2946 2
2947 1
2948 2
2949 1
2950 1
2951 1
2952 1
2953 2
2954 2
2955 2
2956 1
2957 2
2958 1
2959 2
2960 2
2961 1
2962 2
2963 2
2964 2
2965 2
2966 2
2967 2
2968 1
2969 2
2970 2
2971 1
2972 1
2973 1
2974 2
2975 1
2976 2
2977 2
2978 2
2979 2
2980 1
2981 1
2982 1
2983 2
2984 1
2985 1
2986 2
2987 2
2988 2
2989 2
2990 2
2991 2
2992 2
2993 2
2994 1
2995 2
2996 1
2997 2
2998 2
2999 2
3000 1
